50
211
239
191
276
257
291
219
243
241
271
198
210
251
242
185
282
284
250
182
215
273
221
261
205
254
180
236
223
291
226
185
214
207
187
276
220
261
185
228
198
248
293
224
242
293
275
272
216
206
225
